26
 1 260 10
 2 338 13
 3 182 7
 4 364 14
 5 364 14
 6 390 15
 7 338 13
 8 182 7
 9 494 19
 10 130 5
 11 520 20
 12 364 14
 13 130 5
 14 468 18
 15 416 16
 16 208 8
 17 78 3
 18 520 20
 19 234 9
 20 52 2
 21 442 17
 22 260 10
 23 208 8
 24 442 17
 25 312 12
 26 390 15
26